;(set-option :produce-unsat-cores true )
(set-logic ALL_SUPPORTED )
(declare-sort A$ 0 )
(declare-sort Nat$ 0 )
(declare-sort A_set$ 0 )
(declare-sort A_a_fun$ 0 )
(declare-sort A_llist_a_llist_fun$ 0 )
(declare-codatatypes ()((A_llist$ (lNil$ )(lCons$ (lhd$ A$ )(ltl$ A_llist$ )))))
(declare-fun n$ ()Nat$ )
(declare-fun uu$ ()A_llist_a_llist_fun$ )
(declare-fun xs$ ()A_llist$ )
(declare-fun lmap$ (A_a_fun$ A_llist$ )A_llist$ )
(declare-fun lset$ (A_llist$ )A_set$ )
(declare-fun zero$ ()Nat$ )
(declare-fun lnull$ (A_llist$ )Bool )
(declare-fun compow$ (Nat$ A_llist_a_llist_fun$ A_llist$ )A_llist$ )
(declare-fun ldropn$ (Nat$ )A_llist_a_llist_fun$ )
(declare-fun member$ (A$ A_set$ )Bool )
(declare-fun fun_app$ (A_llist_a_llist_fun$ A_llist$ )A_llist$ )
(declare-fun lfinite$ (A_llist$ )Bool )
(declare-fun lprefix$ (A_llist$ A_llist$ )Bool )
(declare-fun fun_app$a (A_a_fun$ A$ )A$ )
(declare-fun iterates$ (A_a_fun$ A$ )A_llist$ )
(assert (! (forall ((?v0 A_llist$ ))(! (= (fun_app$ uu$ ?v0 )(ltl$ ?v0 )):pattern ((fun_app$ uu$ ?v0 )))):named a0 ))
(assert (! (not (= (ltl$ (fun_app$ (ldropn$ n$ )xs$ ))(fun_app$ (ldropn$ n$ )(ltl$ xs$ )))):named a1 ))
(assert (! (forall ((?v0 Nat$ )(?v1 A_llist$ ))(! (= (fun_app$ (ldropn$ ?v0 )?v1 )(compow$ ?v0 uu$ ?v1 )):pattern ((fun_app$ (ldropn$ ?v0 )?v1 )))):named a2 ))
(assert (! (forall ((?v0 A_a_fun$ )(?v1 A$ ))(= (ltl$ (iterates$ ?v0 ?v1 ))(iterates$ ?v0 (fun_app$a ?v0 ?v1 )))):named a3 ))
(assert (! (forall ((?v0 A_llist$ ))(! (= (fun_app$ (ldropn$ zero$ )?v0 )?v0 ):pattern ((fun_app$ (ldropn$ zero$ )?v0 )))):named a4 ))
(assert (! (forall ((?v0 Nat$ ))(! (= (fun_app$ (ldropn$ ?v0 )lNil$ )lNil$ ):pattern ((ldropn$ ?v0 )))):named a5 ))
(assert (! (forall ((?v0 A_a_fun$ )(?v1 A_llist$ ))(= (ltl$ (lmap$ ?v0 ?v1 ))(lmap$ ?v0 (ltl$ ?v1 )))):named a6 ))
(assert (! (forall ((?v0 A_llist$ ))(= (lfinite$ (ltl$ ?v0 ))(lfinite$ ?v0 ))):named a7 ))
(assert (! (forall ((?v0 A_llist$ )(?v1 A_llist$ ))(=> (lprefix$ ?v0 ?v1 )(lprefix$ (ltl$ ?v0 )(ltl$ ?v1 )))):named a8 ))
(assert (! (= (ltl$ lNil$ )lNil$ ):named a9 ))
(assert (! (forall ((?v0 A_llist$ ))(=> (lnull$ ?v0 )(lnull$ (ltl$ ?v0 )))):named a10 ))
(assert (! (forall ((?v0 A$ )(?v1 A_llist$ ))(=> (member$ ?v0 (lset$ (ltl$ ?v1 )))(member$ ?v0 (lset$ ?v1 )))):named a11 ))
(assert (! (forall ((?v0 A_llist$ ))(lprefix$ ?v0 ?v0 )):named a12 ))
(assert (! (forall ((?v0 A_llist$ ))(lprefix$ ?v0 ?v0 )):named a13 ))
(assert (! (forall ((?v0 A_llist$ ))(! (= (lprefix$ lNil$ ?v0 )true ):pattern ((lprefix$ lNil$ ?v0 )))):named a14 ))
(assert (! (forall ((?v0 A_a_fun$ )(?v1 A_llist$ ))(= (lnull$ (lmap$ ?v0 ?v1 ))(lnull$ ?v1 ))):named a15 ))
(assert (! (= (lfinite$ lNil$ )true ):named a16 ))
(check-sat )
;(get-unsat-core )
